(set-option :print-success false)
(set-logic QF_UF)
(declare-sort x118 0)
(declare-sort x91 0)
(declare-sort x218 0)
(declare-sort x183 0)
(declare-sort x164 0)
(declare-sort x175 0)
(declare-sort x2 0)
(declare-sort x55 0)
(declare-sort x241 0)
(declare-fun x86 () Bool)
(declare-fun x99 () Bool)
(declare-fun x253 () Bool)
(declare-fun x78 () Bool)
(declare-fun x67 () x241)
(declare-fun x130 () Bool)
(declare-fun x191 () Bool)
(declare-fun x166 () x218)
(declare-fun x198 () Bool)
(declare-fun x170 () Bool)
(declare-fun x132 () x241)
(declare-fun x125 () Bool)
(declare-fun x205 (x218) Bool)
(declare-fun x159 () x241)
(declare-fun x208 () x241)
(declare-fun x104 () x241)
(declare-fun x59 () x241)
(declare-fun x190 () x241)
(declare-fun x220 () x241)
(declare-fun x167 () Bool)
(declare-fun x48 () x241)
(declare-fun x56 () Bool)
(declare-fun x58 () Bool)
(declare-fun x150 () x164)
(declare-fun x105 () Bool)
(declare-fun x245 () Bool)
(declare-fun x264 () Bool)
(declare-fun x162 () Bool)
(declare-fun x215 () x241)
(declare-fun x18 () Bool)
(declare-fun x41 () Bool)
(declare-fun x229 () Bool)
(declare-fun x140 () Bool)
(declare-fun x10 () Bool)
(declare-fun x88 () Bool)
(declare-fun x85 () x241)
(declare-fun x35 () Bool)
(declare-fun x173 () Bool)
(declare-fun x98 () x241)
(declare-fun x40 () Bool)
(declare-fun x221 () Bool)
(declare-fun x79 () x241)
(declare-fun x187 () Bool)
(declare-fun x258 () Bool)
(declare-fun x19 () x118)
(declare-fun x115 () Bool)
(declare-fun x45 () Bool)
(declare-fun x84 () Bool)
(declare-fun x243 () x241)
(declare-fun x213 () Bool)
(declare-fun x116 () Bool)
(declare-fun x135 () Bool)
(declare-fun x5 () Bool)
(declare-fun x153 () Bool)
(declare-fun x102 () Bool)
(declare-fun x22 () Bool)
(declare-fun x112 () x241)
(declare-fun x4 () Bool)
(declare-fun x108 () x218)
(declare-fun x223 () x175)
(declare-fun x185 () x241)
(declare-fun x152 () x118)
(declare-fun x133 () Bool)
(declare-fun x165 () Bool)
(declare-fun x256 () Bool)
(declare-fun x203 () Bool)
(declare-fun x232 () Bool)
(declare-fun x47 () Bool)
(declare-fun x65 () x241)
(declare-fun x235 () Bool)
(declare-fun x21 () Bool)
(declare-fun x204 () x218)
(declare-fun x179 () Bool)
(declare-fun x172 () Bool)
(declare-fun x106 () Bool)
(declare-fun x120 () Bool)
(declare-fun x74 () Bool)
(declare-fun x194 () x241)
(declare-fun x60 () Bool)
(declare-fun x121 () x241)
(declare-fun x29 () Bool)
(declare-fun x142 () x241)
(declare-fun x36 () Bool)
(declare-fun x261 () Bool)
(declare-fun x129 () Bool)
(declare-fun x103 () x241)
(declare-fun x13 () Bool)
(declare-fun x238 () Bool)
(declare-fun x124 () Bool)
(declare-fun x9 () x241)
(declare-fun x236 (Bool x55) x241)
(declare-fun x171 () Bool)
(declare-fun x17 () Bool)
(declare-fun x195 () Bool)
(declare-fun x160 () Bool)
(declare-fun x139 () Bool)
(declare-fun x75 () Bool)
(declare-fun x230 () x241)
(declare-fun x32 () Bool)
(declare-fun x100 () Bool)
(declare-fun x137 () Bool)
(declare-fun x50 () x218)
(declare-fun x255 () Bool)
(declare-fun x11 () x241)
(declare-fun x89 () x241)
(declare-fun x49 () Bool)
(declare-fun x197 () x218)
(declare-fun x77 () Bool)
(declare-fun x193 () Bool)
(declare-fun x263 () Bool)
(declare-fun x147 () Bool)
(declare-fun x136 () Bool)
(declare-fun x209 () x183)
(declare-fun x210 () Bool)
(declare-fun x69 () Bool)
(declare-fun x260 () Bool)
(declare-fun x30 () Bool)
(declare-fun x155 () x241)
(declare-fun x242 () Bool)
(declare-fun x12 () Bool)
(declare-fun x257 () Bool)
(declare-fun x227 () x241)
(declare-fun x199 () x241)
(declare-fun x231 (Bool x91) x218)
(declare-fun x177 () Bool)
(declare-fun x93 () Bool)
(declare-fun x39 () Bool)
(declare-fun x25 () Bool)
(declare-fun x148 () Bool)
(declare-fun x54 () Bool)
(declare-fun x157 () Bool)
(declare-fun x73 () x164)
(declare-fun x1 () x241)
(declare-fun x201 () x241)
(declare-fun x90 () x241)
(declare-fun x51 () Bool)
(declare-fun x145 () Bool)
(declare-fun x113 () Bool)
(declare-fun x87 () Bool)
(declare-fun x262 () Bool)
(declare-fun x244 () Bool)
(declare-fun x216 () x183)
(declare-fun x94 () Bool)
(declare-fun x96 () Bool)
(declare-fun x251 () x241)
(declare-fun x31 () Bool)
(declare-fun x7 () Bool)
(declare-fun x252 () x118)
(declare-fun x110 () Bool)
(declare-fun x57 () Bool)
(declare-fun x68 () x218)
(declare-fun x128 () Bool)
(declare-fun x217 () Bool)
(declare-fun x43 () Bool)
(declare-fun x101 () x241)
(declare-fun x184 () Bool)
(declare-fun x168 () Bool)
(declare-fun x189 () Bool)
(declare-fun x111 () x164)
(declare-fun x141 () Bool)
(declare-fun x63 () Bool)
(declare-fun x265 () Bool)
(declare-fun x156 (x118 x2) x241)
(declare-fun x143 () Bool)
(declare-fun x224 () Bool)
(declare-fun x240 () Bool)
(declare-fun x138 () x241)
(declare-fun x228 () Bool)
(declare-fun x254 () Bool)
(declare-fun x28 () Bool)
(declare-fun x178 () Bool)
(declare-fun x64 (x183 x175) x241)
(declare-fun x33 () Bool)
(declare-fun x82 () Bool)
(declare-fun x234 () Bool)
(declare-fun x24 () Bool)
(declare-fun x97 () Bool)
(declare-fun x174 () Bool)
(declare-fun x38 () Bool)
(declare-fun x126 () Bool)
(declare-fun x196 () Bool)
(declare-fun x26 () x241)
(declare-fun x34 () Bool)
(declare-fun x80 () x241)
(declare-fun x249 () x183)
(declare-fun x151 () Bool)
(declare-fun x71 () Bool)
(declare-fun x83 () Bool)
(declare-fun x186 () Bool)
(declare-fun x44 () x241)
(declare-fun x239 () Bool)
(declare-fun x95 () Bool)
(declare-fun x180 () Bool)
(declare-fun x61 () Bool)
(declare-fun x161 () Bool)
(declare-fun x188 () x241)
(declare-fun x76 () Bool)
(declare-fun x250 () x241)
(declare-fun x27 () Bool)
(declare-fun x212 () Bool)
(declare-fun x81 () Bool)
(declare-fun x259 () Bool)
(declare-fun x206 () Bool)
(declare-fun x214 (x164) x118)
(declare-fun x226 () Bool)
(declare-fun x53 () Bool)
(declare-fun x14 () Bool)
(declare-fun x72 () x241)
(declare-fun x207 () Bool)
(declare-fun x131 () Bool)
(declare-fun x176 () Bool)
(declare-fun x114 () Bool)
(declare-fun x211 () Bool)
(declare-fun x222 () Bool)
(declare-fun x122 () Bool)
(declare-fun x107 () x241)
(declare-fun x192 () Bool)
(declare-fun x134 () Bool)
(declare-fun x42 () x241)
(declare-fun x149 () Bool)
(declare-fun x144 () Bool)
(declare-fun x46 () x241)
(declare-fun x237 () x2)
(declare-fun x15 () x55)
(declare-fun x62 () Bool)
(declare-fun x158 () x241)
(declare-fun x225 () Bool)
(declare-fun x163 () Bool)
(declare-fun x20 () Bool)
(declare-fun x154 () Bool)
(declare-fun x219 () Bool)
(declare-fun x248 () Bool)
(declare-fun x16 () Bool)
(declare-fun x37 () Bool)
(declare-fun x117 () Bool)
(declare-fun x181 () Bool)
(declare-fun x119 () Bool)
(declare-fun x247 () Bool)
(declare-fun x202 () Bool)
(declare-fun x109 () Bool)
(declare-fun x70 () Bool)
(declare-fun x146 () Bool)
(declare-fun x52 () Bool)
(declare-fun x200 () Bool)
(declare-fun x246 () Bool)
(declare-fun x92 () x118)
(declare-fun x6 () x241)
(declare-fun x23 () Bool)
(declare-fun x66 () Bool)
(declare-fun x169 () Bool)
(declare-fun x182 () Bool)
(declare-fun x123 () x218)
(declare-fun x233 () x91)
(declare-fun x8 () Bool)
(declare-fun x3 () Bool)
(declare-fun x127 () Bool)
(assert (= x219 (or x161 x3)))
(assert (= (not x222) x32))
(assert (= x26 (x64 x209 x223)))
(assert (= x21 (= x108 x68)))
(assert (= x128 (= x79 x101)))
(assert (= x248 (not (= x107 x79))))
(assert (= (or x97 x31) x100))
(assert (= (x236 x63 x15) x227))
(assert (= x110 (not (= x72 x107))))
(assert (= x161 (= x107 x72)))
(assert (= x125 (and x235 x105)))
(assert (= (and x131 x178) x54))
(assert (= (= x59 x107) x147))
(assert (= (and x225 x51) x126))
(assert (distinct x107 x80 x101))
(assert (= x81 (not x254)))
(assert (= (not x29) x172))
(assert (= x79 (x236 x211 x15)))
(assert (= (= x165 x160) x224))
(assert (= x260 (not (= x101 x9))))
(assert (= (or x146 x31) x78))
(assert (= (not x35) x186))
(assert (= x259 (not (= x185 x101))))
(assert (= (and x174 x219) x76))
(assert (= (not x262) x115))
(assert (= x43 (or x248 x192)))
(assert (= (= x197 x68) x228))
(assert (= x135 (not x53)))
(assert (= (or x141 x97) x178))
(assert (= x148 (= x101 x48)))
(assert (= (x236 x25 x15) x159))
(assert (= (x236 x240 x15) x72))
(assert (= (or x161 x210) x75))
(assert (= (x236 x189 x15) x121))
(assert (= (not (= x104 x107)) x3))
(assert (= (not x20) x87))
(assert (= (and x154 x149) x71))
(assert (= (not (= x208 x107)) x106))
(assert (= (or x110 x244) x154))
(assert (= x146 (not (= x220 x101))))
(assert (= (not x140) x169))
(assert (= (and x145 x7) x258))
(assert (= x226 (not x18)))
(assert (not (= x123 x108)))
(assert (= x31 (= x155 x101)))
(assert (= (and x95 x75) x165))
(assert (= x81 (and x151 x13)))
(assert (= x139 (= x104 x107)))
(assert (= (or x106 x147) x195))
(assert (= x172 (and x34 x259)))
(assert (= (or x147 x167) x45))
(assert (= x59 (x236 x226 x15)))
(assert (= x122 (or x96 x148)))
(assert (= (x205 x68) x87))
(assert (= x207 (not (= x107 x65))))
(assert (= (= x197 x108) x247))
(assert (= (and x52 x4) x120))
(assert (= x155 (x236 x86 x15)))
(assert (= (and x23 x228) x149))
(assert (= (not (= x101 x26)) x173))
(assert (= x174 (and x180 x182)))
(assert (= (not (= x44 x101)) x235))
(assert (= (not x27) x125))
(assert (= (not x66) x36))
(assert (= (and x133 x179) x253))
(assert (= x19 (x214 x111)))
(assert (= (x236 x87 x15) x9))
(assert (= x114 (= x101 x199)))
(assert (= (or x141 x96) x94))
(assert (= x242 (not x109)))
(assert (= x203 (not x153)))
(assert (= (and x153 x24 x136 x29 x262 x18 x53 x21 x117 x60 x77 x109 x254 x93 x246 x222 x27 x16 x35 x66 x256 x38 x140 x57 x124 x176 x263 x177 x22 x224 x247 x105) x171))
(assert (= (and x198 x217) x180))
(assert (= (or x141 x148) x179))
(assert (= (x156 x19 x237) x6))
(assert (= x141 (= x243 x101)))
(assert (= x104 (x236 x32 x15)))
(assert (= x217 (and x43 x126)))
(assert (= x245 (not (= x103 x101))))
(assert (= (not x77) x189))
(assert (= (not x38) x160))
(assert (= x4 (= x44 x101)))
(assert (= x157 (not (= x155 x107))))
(assert (= (= x9 x101) x261))
(assert (= (not x8) x82))
(assert (= (x231 x57 x233) x204))
(assert (= x65 (x236 x61 x15)))
(assert (= x14 (or x207 x161)))
(assert (= (and x173 x60) x203))
(assert (= (and x122 x71) x144))
(assert (= x60 (= x249 x209)))
(assert (= x131 (and x253 x88)))
(assert (= (x64 x216 x223) x185))
(assert (= (x236 x115 x15) x243))
(assert (= x240 (not x117)))
(assert (= (and x45 x120) x23))
(assert (= (not x263) x37))
(assert (= x206 (not x93)))
(assert (= (x214 x73) x152))
(assert (= x208 (x236 x257 x15)))
(assert (= (x236 x82 x15) x201))
(assert (= (not (= x101 x6)) x13))
(assert (= (not x24) x86))
(assert (= (= x159 x107) x192))
(assert (= x34 (= x249 x216)))
(assert (= (= x150 x111) x151))
(assert (= x119 (= x204 x123)))
(assert (= x44 (x156 x152 x237)))
(assert (= x206 (and x260 x20)))
(assert (= x25 (not x256)))
(assert (= (not x136) x40))
(assert (= (or x49 x97) x88))
(assert (= (= x227 x101) x96))
(assert (= x191 (and x255 x8)))
(assert (= x133 (and x144 x94)))
(assert (= x244 (= x65 x107)))
(assert x171)
(assert (= x211 (not x177)))
(assert (= x97 (= x65 x101)))
(assert (= x49 (= x101 x220)))
(assert (= x167 (not (= x107 x121))))
(assert (= (= x101 x159) x184))
(assert (= (or x128 x114) x127))
(assert (= (= x101 x26) x210))
(assert (= x48 (x236 x169 x15)))
(assert (= x7 (and x100 x54)))
(assert (= (not x246) x74))
(assert (= x182 (or x139 x167)))
(assert (= (and x127 x170) x95))
(assert (= x170 (and x76 x195)))
(assert (= x61 (not x16)))
(assert (= (not x22) x191))
(assert (= x255 (not (= x201 x101))))
(assert (= (or x157 x119) x51))
(assert (= x63 (not x176)))
(assert (= x105 (= x150 x73)))
(assert (= (x236 x36 x15) x220))
(assert (= (and x258 x78) x225))
(assert (= x52 (and x14 x261)))
(assert (= x199 (x236 x74 x15)))
(assert (= (or x141 x49) x145))
(assert (= x82 (x205 x166)))
(assert (= x257 (not x124)))
(assert (= x198 (or x184 x245)))
(assert (= (x236 x135 x15) x103))
(check-sat)
(exit)
